Tried aggregator 2 times.
MIP Presolve eliminated 21 rows and 10 columns.
MIP Presolve modified 4 coefficients.
Aggregator did 4 substitutions.
All rows and columns eliminated.
Presolve time =    0.00 sec.
Solution status 101.
Objective value 10

Elapsed time : 0.000 
